data;

param num_top:=4;

#nodes and edges of the physical network
param n := 10;

set E := (1,2) (1,3) (1,7) (2,4) (2,7) (3,5) (4,8) (5,6) (5,7) (6,7) (6,9) (7,8) (7,9) (8,10) (9,10) ;

#nodes and edges of the virtual networks
set Nl[1] := 4 6 2 1 8 ;
set Nl[2] := 5 9 7 8 2 ;
set Nl[3] := 4 1 5 2 7 ;
set Nl[4] := 2 8 4 6 9 ;

set El[1] := (4,6) (2,6) (1,2) (1,8) (4,8) (1,4) (2,4) (6,8) (2,8) (1,6) ;
set El[2] := (5,9) (7,9) (7,8) (2,8) (2,5) (2,7) (5,7) (5,8) (8,9) (2,9) ;
set El[3] := (1,4) (1,5) (2,5) (2,7) (4,7) (4,5) (2,4) (1,2) (5,7) (1,7) ;
set El[4] := (2,8) (4,8) (4,6) (6,9) (2,9) (2,4) (4,9) (6,8) (8,9) (2,6) ;
